1 3 100 22160.13
1 3 200 22360.11
1 3 300 22653.74
2 3 100 24037.01
2 3 200 23923.57
2 3 300 24360.81
3 3 100 24084.50
3 3 200 24700.64
3 3 300 23813.54
4 3 100 23010.74
4 3 200 23470.46
4 3 300 23353.26
5 3 100 22443.29
5 3 200 23138.91
5 3 300 23280.10
